(set-info :source |printed by MathSAT|)
(declare-fun param_etat_mo4 () Bool)
(declare-fun erreur_mo () Bool)
(declare-fun call_moesi.ite28 () Int)
(declare-fun call_moesi.ite32 () Int)
(declare-fun invalid_mo () Int)
(declare-fun call_moesi.ite29 () Int)
(declare-fun call_moesi.ite3 () Int)
(declare-fun call_Sofar.Sofar () Bool)
(declare-fun call_moesi.ite19 () Int)
(declare-fun call_moesi.ite30 () Int)
(declare-fun call_moesi.flby6 () Int)
(declare-fun call_moesi.invalid_mo () Int)
(declare-fun call_moesi.ite22 () Int)
(declare-fun call_moesi.exclusive_mo () Int)
(declare-fun call_moesi.ite27 () Int)
(declare-fun call_excludes4.excludes () Bool)
(declare-fun call_moesi.ite10 () Int)
(declare-fun call_moesi.ite5 () Int)
(declare-fun env () Bool)
(declare-fun param_etat_mo3 () Bool)
(declare-fun call_moesi.ite21 () Int)
(declare-fun call_moesi.ite12 () Int)
(declare-fun call_moesi.ite20 () Int)
(declare-fun param_etat_mo1 () Bool)
(declare-fun call_moesi.flby3 () Int)
(declare-fun call_moesi.ite16 () Int)
(declare-fun call_moesi.ite2 () Int)
(declare-fun call_moesi.ite4 () Int)
(declare-fun call_moesi.ite24 () Int)
(declare-fun call_moesi.garde_mo4 () Bool)
(declare-fun call_moesi.ite23 () Int)
(declare-fun call_moesi.ite6 () Int)
(declare-fun owned_mo () Int)
(declare-fun call_moesi.garde_mo1 () Bool)
(declare-fun call_moesi.ite9 () Int)
(declare-fun call_moesi.flby4 () Int)
(declare-fun shared_mo () Int)
(declare-fun call_moesi.ite34 () Int)
(declare-fun call_moesi.ite8 () Int)
(declare-fun call_moesi.ite18 () Int)
(declare-fun call_moesi.shared_mo () Int)
(declare-fun param_init_invalid_mo () Int)
(declare-fun call_moesi.ite () Int)
(declare-fun call_moesi.ite7 () Int)
(declare-fun param_etat_mo2 () Bool)
(declare-fun call_moesi.flby5 () Int)
(declare-fun call_moesi.ite26 () Int)
(declare-fun call_moesi.ite15 () Int)
(declare-fun call_moesi.ite13 () Int)
(declare-fun call_moesi.ite33 () Int)
(declare-fun flby () Bool)
(declare-fun call_moesi.flby () Bool)
(declare-fun call_moesi.ite17 () Int)
(declare-fun call_moesi.garde_mo3 () Bool)
(declare-fun call_moesi.owned_mo () Int)
(declare-fun exclusive_mo () Int)
(declare-fun call_moesi.ite14 () Int)
(declare-fun modified_mo () Int)
(declare-fun _OK_ () Bool)
(declare-fun call_moesi.modified_mo () Int)
(declare-fun call_moesi.flby2 () Int)
(declare-fun call_moesi.ite11 () Int)
(declare-fun call_moesi.ite25 () Int)
(declare-fun call_moesi.erreur_mo () Bool)
(declare-fun call_Sofar.flby () Bool)
(declare-fun call_moesi.ite31 () Int)
(define-fun .def_930 () Bool (= call_Sofar.flby call_Sofar.Sofar))
(define-fun .def_925 () Bool (and param_etat_mo4 param_etat_mo3))
(define-fun .def_923 () Bool (and param_etat_mo4 param_etat_mo2))
(define-fun .def_921 () Bool (and param_etat_mo2 param_etat_mo3))
(define-fun .def_919 () Bool (and param_etat_mo4 param_etat_mo1))
(define-fun .def_917 () Bool (and param_etat_mo1 param_etat_mo3))
(define-fun .def_916 () Bool (and param_etat_mo2 param_etat_mo1))
(define-fun .def_918 () Bool (or .def_916 .def_917))
(define-fun .def_920 () Bool (or .def_918 .def_919))
(define-fun .def_922 () Bool (or .def_920 .def_921))
(define-fun .def_924 () Bool (or .def_922 .def_923))
(define-fun .def_926 () Bool (or .def_924 .def_925))
(define-fun .def_927 () Bool (not .def_926))
(define-fun .def_928 () Bool (= call_excludes4.excludes .def_927))
(define-fun .def_914 () Bool (= call_moesi.flby call_moesi.erreur_mo))
(define-fun .def_912 () Bool (= call_moesi.flby6 call_moesi.owned_mo))
(define-fun .def_910 () Bool (= call_moesi.flby5 call_moesi.invalid_mo))
(define-fun .def_908 () Bool (= call_moesi.flby4 call_moesi.shared_mo))
(define-fun .def_906 () Bool (= call_moesi.flby3 call_moesi.exclusive_mo))
(define-fun .def_904 () Bool (= call_moesi.flby2 call_moesi.modified_mo))
(define-fun .def_902 () Bool (= env call_Sofar.Sofar))
(define-fun .def_899 () Bool (= erreur_mo call_moesi.erreur_mo))
(define-fun .def_895 () Bool (= owned_mo call_moesi.owned_mo))
(define-fun .def_891 () Bool (= invalid_mo call_moesi.invalid_mo))
(define-fun .def_887 () Bool (= shared_mo call_moesi.shared_mo))
(define-fun .def_883 () Bool (= exclusive_mo call_moesi.exclusive_mo))
(define-fun .def_879 () Bool (= modified_mo call_moesi.modified_mo))
(define-fun .def_873 () Bool (not env))
(define-fun .def_874 () Bool (or flby .def_873))
(define-fun .def_875 () Bool (= _OK_ .def_874))
(define-fun .def_867 () Bool (= call_moesi.ite32 call_moesi.ite33))
(define-fun .def_868 () Bool (or param_etat_mo3 .def_867))
(define-fun .def_864 () Bool (= call_moesi.ite30 call_moesi.ite33))
(define-fun .def_842 () Bool (not param_etat_mo3))
(define-fun .def_865 () Bool (or .def_842 .def_864))
(define-fun .def_861 () Bool (= call_moesi.ite26 call_moesi.ite27))
(define-fun .def_862 () Bool (or param_etat_mo3 .def_861))
(define-fun .def_858 () Bool (= call_moesi.ite27 call_moesi.ite24))
(define-fun .def_859 () Bool (or .def_842 .def_858))
(define-fun .def_854 () Bool (= call_moesi.ite20 call_moesi.ite21))
(define-fun .def_855 () Bool (or param_etat_mo3 .def_854))
(define-fun .def_851 () Bool (= call_moesi.ite18 call_moesi.ite21))
(define-fun .def_852 () Bool (or .def_842 .def_851))
(define-fun .def_848 () Bool (= call_moesi.ite13 call_moesi.ite14))
(define-fun .def_849 () Bool (or param_etat_mo3 .def_848))
(define-fun .def_845 () Bool (= call_moesi.ite11 call_moesi.ite14))
(define-fun .def_846 () Bool (or .def_842 .def_845))
(define-fun .def_841 () Bool (= call_moesi.ite3 call_moesi.ite6))
(define-fun .def_843 () Bool (or .def_841 .def_842))
(define-fun .def_838 () Bool (= call_moesi.ite5 call_moesi.ite6))
(define-fun .def_840 () Bool (or .def_838 param_etat_mo3))
(define-fun .def_844 () Bool (and .def_840 .def_843))
(define-fun .def_847 () Bool (and .def_844 .def_846))
(define-fun .def_850 () Bool (and .def_847 .def_849))
(define-fun .def_853 () Bool (and .def_850 .def_852))
(define-fun .def_856 () Bool (and .def_853 .def_855))
(define-fun .def_860 () Bool (and .def_856 .def_859))
(define-fun .def_863 () Bool (and .def_860 .def_862))
(define-fun .def_866 () Bool (and .def_863 .def_865))
(define-fun .def_869 () Bool (and .def_866 .def_868))
(define-fun .def_834 () Bool (= call_moesi.ite34 call_moesi.ite33))
(define-fun .def_835 () Bool (or param_etat_mo1 .def_834))
(define-fun .def_830 () Bool (= call_moesi.ite29 call_moesi.ite34))
(define-fun .def_800 () Bool (not param_etat_mo1))
(define-fun .def_831 () Bool (or .def_800 .def_830))
(define-fun .def_825 () Bool (= call_moesi.ite28 call_moesi.ite27))
(define-fun .def_826 () Bool (or param_etat_mo1 .def_825))
(define-fun .def_821 () Bool (= call_moesi.ite23 call_moesi.ite28))
(define-fun .def_822 () Bool (or .def_800 .def_821))
(define-fun .def_816 () Bool (= call_moesi.ite22 call_moesi.ite21))
(define-fun .def_817 () Bool (or param_etat_mo1 .def_816))
(define-fun .def_812 () Bool (= call_moesi.ite17 call_moesi.ite22))
(define-fun .def_813 () Bool (or .def_800 .def_812))
(define-fun .def_807 () Bool (= call_moesi.ite15 call_moesi.ite16))
(define-fun .def_808 () Bool (or param_etat_mo1 .def_807))
(define-fun .def_804 () Bool (= call_moesi.ite9 call_moesi.ite16))
(define-fun .def_805 () Bool (or .def_800 .def_804))
(define-fun .def_799 () Bool (= call_moesi.ite call_moesi.ite8))
(define-fun .def_801 () Bool (or .def_799 .def_800))
(define-fun .def_796 () Bool (= call_moesi.ite7 call_moesi.ite8))
(define-fun .def_798 () Bool (or .def_796 param_etat_mo1))
(define-fun .def_802 () Bool (and .def_798 .def_801))
(define-fun .def_806 () Bool (and .def_802 .def_805))
(define-fun .def_809 () Bool (and .def_806 .def_808))
(define-fun .def_814 () Bool (and .def_809 .def_813))
(define-fun .def_818 () Bool (and .def_814 .def_817))
(define-fun .def_823 () Bool (and .def_818 .def_822))
(define-fun .def_827 () Bool (and .def_823 .def_826))
(define-fun .def_832 () Bool (and .def_827 .def_831))
(define-fun .def_836 () Bool (and .def_832 .def_835))
(define-fun .def_792 () Bool (= call_moesi.ite15 call_moesi.ite14))
(define-fun .def_793 () Bool (or param_etat_mo2 .def_792))
(define-fun .def_788 () Bool (= call_moesi.ite10 call_moesi.ite15))
(define-fun .def_783 () Bool (not param_etat_mo2))
(define-fun .def_789 () Bool (or .def_783 .def_788))
(define-fun .def_782 () Bool (= call_moesi.ite7 call_moesi.ite2))
(define-fun .def_784 () Bool (or .def_782 .def_783))
(define-fun .def_778 () Bool (= call_moesi.ite7 call_moesi.ite6))
(define-fun .def_780 () Bool (or .def_778 param_etat_mo2))
(define-fun .def_785 () Bool (and .def_780 .def_784))
(define-fun .def_790 () Bool (and .def_785 .def_789))
(define-fun .def_794 () Bool (and .def_790 .def_793))
(define-fun .def_837 () Bool (and .def_794 .def_836))
(define-fun .def_870 () Bool (and .def_837 .def_869))
(define-fun .def_876 () Bool (and .def_870 .def_875))
(define-fun .def_880 () Bool (and .def_876 .def_879))
(define-fun .def_884 () Bool (and .def_880 .def_883))
(define-fun .def_888 () Bool (and .def_884 .def_887))
(define-fun .def_892 () Bool (and .def_888 .def_891))
(define-fun .def_896 () Bool (and .def_892 .def_895))
(define-fun .def_900 () Bool (and .def_896 .def_899))
(define-fun .def_903 () Bool (and .def_900 .def_902))
(define-fun .def_905 () Bool (and .def_903 .def_904))
(define-fun .def_907 () Bool (and .def_905 .def_906))
(define-fun .def_909 () Bool (and .def_907 .def_908))
(define-fun .def_911 () Bool (and .def_909 .def_910))
(define-fun .def_913 () Bool (and .def_911 .def_912))
(define-fun .def_915 () Bool (and .def_913 .def_914))
(define-fun .def_929 () Bool (and .def_915 .def_928))
(define-fun .def_931 () Bool (and .def_929 .def_930))
(define-fun .def_774 () Bool (= call_excludes4.excludes call_Sofar.flby))
(define-fun .def_770 () Bool (= call_moesi.flby6 0))
(define-fun .def_767 () Bool (= param_init_invalid_mo call_moesi.flby5))
(define-fun .def_763 () Bool (= call_moesi.flby4 0))
(define-fun .def_760 () Bool (= call_moesi.flby3 0))
(define-fun .def_757 () Bool (= call_moesi.flby2 0))
(define-fun .def_754 () Bool (not call_moesi.flby))
(define-fun .def_749 () Bool (= call_moesi.ite31 0))
(define-fun .def_741 () Bool (not call_moesi.garde_mo4))
(define-fun .def_750 () Bool (or .def_741 .def_749))
(define-fun .def_746 () Bool (= call_moesi.ite19 0))
(define-fun .def_747 () Bool (or .def_741 .def_746))
(define-fun .def_743 () Bool (= call_moesi.ite4 0))
(define-fun .def_744 () Bool (or .def_741 .def_743))
(define-fun .def_739 () Bool (= call_moesi.ite12 1))
(define-fun .def_742 () Bool (or .def_739 .def_741))
(define-fun .def_745 () Bool (and .def_742 .def_744))
(define-fun .def_748 () Bool (and .def_745 .def_747))
(define-fun .def_751 () Bool (and .def_748 .def_750))
(define-fun .def_735 () Bool (= call_moesi.ite30 0))
(define-fun .def_724 () Bool (not call_moesi.garde_mo3))
(define-fun .def_736 () Bool (or .def_724 .def_735))
(define-fun .def_731 () Bool (= call_moesi.ite18 0))
(define-fun .def_732 () Bool (or .def_724 .def_731))
(define-fun .def_727 () Bool (= call_moesi.ite3 0))
(define-fun .def_728 () Bool (or .def_724 .def_727))
(define-fun .def_722 () Bool (= call_moesi.ite11 1))
(define-fun .def_725 () Bool (or .def_722 .def_724))
(define-fun .def_729 () Bool (and .def_725 .def_728))
(define-fun .def_733 () Bool (and .def_729 .def_732))
(define-fun .def_737 () Bool (and .def_733 .def_736))
(define-fun .def_717 () Bool (= call_moesi.ite 0))
(define-fun .def_714 () Bool (not call_moesi.garde_mo1))
(define-fun .def_718 () Bool (or .def_714 .def_717))
(define-fun .def_712 () Bool (= call_moesi.ite9 0))
(define-fun .def_715 () Bool (or .def_712 .def_714))
(define-fun .def_719 () Bool (and .def_715 .def_718))
(define-fun .def_706 () Bool (= call_moesi.ite31 call_moesi.ite32))
(define-fun .def_687 () Bool (not param_etat_mo4))
(define-fun .def_707 () Bool (or .def_687 .def_706))
(define-fun .def_701 () Bool (= call_moesi.ite25 call_moesi.ite26))
(define-fun .def_702 () Bool (or .def_687 .def_701))
(define-fun .def_696 () Bool (= call_moesi.ite19 call_moesi.ite20))
(define-fun .def_697 () Bool (or .def_687 .def_696))
(define-fun .def_691 () Bool (= call_moesi.ite4 call_moesi.ite5))
(define-fun .def_692 () Bool (or .def_687 .def_691))
(define-fun .def_685 () Bool (= call_moesi.ite12 call_moesi.ite13))
(define-fun .def_688 () Bool (or .def_685 .def_687))
(define-fun .def_693 () Bool (and .def_688 .def_692))
(define-fun .def_698 () Bool (and .def_693 .def_697))
(define-fun .def_703 () Bool (and .def_698 .def_702))
(define-fun .def_708 () Bool (and .def_703 .def_707))
(define-fun .def_710 () Bool (and .def_708 flby))
(define-fun .def_720 () Bool (and .def_710 .def_719))
(define-fun .def_738 () Bool (and .def_720 .def_737))
(define-fun .def_752 () Bool (and .def_738 .def_751))
(define-fun .def_755 () Bool (and .def_752 .def_754))
(define-fun .def_758 () Bool (and .def_755 .def_757))
(define-fun .def_761 () Bool (and .def_758 .def_760))
(define-fun .def_764 () Bool (and .def_761 .def_763))
(define-fun .def_768 () Bool (and .def_764 .def_767))
(define-fun .def_771 () Bool (and .def_768 .def_770))
(define-fun .def_775 () Bool (and .def_771 .def_774))
(define-fun .def_932 () Bool (and .def_775 .def_931))
(assert .def_932)
